n = 15;
m = 51;

y_pos_map = [ 8, 9, 9, 8, 7, 7, 7, 8, 9, 10, 10, 10, 10, 9, 8, 7, 6, 6, 6, 6, 6, 7, 8, 9, 10, 11, 11, 11, 11, 11, 11, 10, 9, 8, 7, 6, 5, 5, 5, 5, 5, 5, 5, 6, 7, 8, 9, 10, 11, 12, 12, 12, 12, 12, 12, 12, 12, 11, 10, 9, 8, 7, 6, 5, 4, 4, 4, 4, 4, 4, 4, 4, 4, 5, 6, 7, 8, 9, 10, 11, 12, 13, 13, 13, 13, 13, 13, 13, 13, 13, 13, 12, 11, 10, 9, 8, 7, 6, 5, 4, 3, 3, 3, 3, 3, 3, 3, 3, 3, 3, 3, 4, 5, 6, 7, 8, 9, 10, 11, 12, 13, 14, 14, 14, 14, 14, 14, 14, 14, 14, 14, 14, 14, 13, 12, 11, 10, 9, 8, 7, 6, 5, 4, 3, 2, 2, 2, 2, 2, 2, 2, 2, 2, 2, 2, 2, 2, 3, 4, 5, 6, 7, 8, 9, 10, 11, 12, 13, 14, 15, 15, 15, 15, 15, 15, 15, 15, 15, 15, 15, 15, 15, 15, 14, 13, 12, 11, 10, 9, 8, 7, 6, 5, 4, 3, 2, 1, 1, 1, 1, 1, 1, 1, 1, 1, 1, 1, 1, 1, 1, 1, 2, 3, 4, 5, 6, 7, 8, 9, 10, 11, 12, 13, 14, 15 ];
x_pos_map = [ 8, 8, 9, 9, 9, 8, 7, 7, 7, 7, 8, 9, 10, 10, 10, 10, 10, 9, 8, 7, 6, 6, 6, 6, 6, 6, 7, 8, 9, 10, 11, 11, 11, 11, 11, 11, 11, 10, 9, 8, 7, 6, 5, 5, 5, 5, 5, 5, 5, 5, 6, 7, 8, 9, 10, 11, 12, 12, 12, 12, 12, 12, 12, 12, 12, 11, 10, 9, 8, 7, 6, 5, 4, 4, 4, 4, 4, 4, 4, 4, 4, 4, 5, 6, 7, 8, 9, 10, 11, 12, 13, 13, 13, 13, 13, 13, 13, 13, 13, 13, 13, 12, 11, 10, 9, 8, 7, 6, 5, 4, 3, 3, 3, 3, 3, 3, 3, 3, 3, 3, 3, 3, 4, 5, 6, 7, 8, 9, 10, 11, 12, 13, 14, 14, 14, 14, 14, 14, 14, 14, 14, 14, 14, 14, 14, 13, 12, 11, 10, 9, 8, 7, 6, 5, 4, 3, 2, 2, 2, 2, 2, 2, 2, 2, 2, 2, 2, 2, 2, 2, 3, 4, 5, 6, 7, 8, 9, 10, 11, 12, 13, 14, 15, 15, 15, 15, 15, 15, 15, 15, 15, 15, 15, 15, 15, 15, 15, 14, 13, 12, 11, 10, 9, 8, 7, 6, 5, 4, 3, 2, 1, 1, 1, 1, 1, 1, 1, 1, 1, 1, 1, 1, 1, 1, 1 ];

max_len = 6;
word_lens = [ 4, 4, 4, 4, 4, 4, 4, 4, 4, 4, 4, 4, 4, 4, 4, 4, 4, 4, 4, 4, 4, 4, 5, 5, 5, 5, 5, 5, 5, 5, 5, 5, 5, 5, 5, 5, 5, 5, 5, 5, 5, 6, 6, 6, 6, 6, 6, 6, 6, 6, 6 ];
max_freq_idx = [ 1, 2, 1, 1, 2, 3, 2, 1, 2, 3, 3, 1, 3, 2, 1, 1, 1, 1, 1, 2, 2, 0, 2, 4, 4, 2, 1, 4, 3, 3, 1, 1, 1, 2, 2, 2, 4, 1, 1, 3, 3, 3, 5, 1, 5, 1, 3, 0, 1, 0, 3 ];
words = [| M, I, L, K, A, A | B, E, A, N, A, A | B, A, S, H, A, A | T, E, S, T, A, A | Q, U, A, L, A, A | C, O, L, A, A, A | C, H, A, I, A, A | G, A, L, A, A, A | B, R, E, W, A, A | W, I, N, E, A, A | C, O, K, E, A, A | S, E, E, D, A, A | S, O, D, A, A, A | T, R, E, E, A, A | C, A, K, E, A, A | M, I, L, L, A, A | J, A, V, A, A, A | F, E, T, E, A, A | B, E, E, R, A, A | C, O, R, N, A, A | K, H, A, T, A, A | A, G, O, N, A, A | F, E, A, S, T, A | F, E, R, I, A, A | M, O, C, H, A, A | C, H, E, E, R, A | L, A, T, T, E, A | C, O, C, O, A, A | B, R, E, A, D, A | U, M, B, E, R, A | Y, E, M, E, N, A | R, E, V, E, L, A | P, A, R, T, Y, A | E, V, E, N, T, A | P, L, A, N, T, A | S, N, A, C, K, A | J, U, I, C, E, A | B, R, O, W, N, A | D, R, I, N, K, A | S, U, G, A, R, A | D, E, C, A, F, A | B, A, N, A, N, A | P, E, R, S, I, A | E, A, S, T, E, R | F, I, E, S, T, A | V, E, N, I, C, E | P, A, R, A, D, E | A, C, I, D, I, C | C, A, N, C, E, R | A, F, R, I, C, A | A, F, F, A, I, R |];

pos_var_strat = first_fail;
pos_val_strat = indomain_median;
